
Gurobi 9.5.2 (linux64, C++) logging started Mon Aug 15 23:24:53 2022

Set parameter LogFile to value "lp1.log"
Gurobi Optimizer version 9.5.2 build v9.5.2rc0 (linux64)
Thread count: 6 physical cores, 12 logical processors, using up to 12 threads
Optimize a model with 1001 rows, 1000000 columns and 2000000 nonzeros
Model fingerprint: 0x2c89bd94
Coefficient statistics:
  Matrix range     [1e+00, 1e+02]
  Objective range  [1e+00, 1e+02]
  Bounds range     [1e+00, 1e+00]
  RHS range        [1e+00, 6e+03]

Concurrent LP optimizer: primal simplex, dual simplex, and barrier
Showing barrier log only...

Presolve removed 0 rows and 900001 columns
Presolve time: 1.05s
Presolved: 1001 rows, 99999 columns, 199998 nonzeros

Ordering time: 0.00s

Barrier statistics:
 AA' NZ     : 1.000e+03
 Factor NZ  : 2.436e+03 (roughly 40 MB of memory)
 Factor Ops : 1.430e+04 (less than 1 second per iteration)
 Threads    : 1

                  Objective                Residual
Iter       Primal          Dual         Primal    Dual     Compl     Time
   0   1.19217584e+07  8.28097235e+04  2.18e+05 2.54e+01  9.74e+01     1s
   1   2.86493749e+06  1.33859728e+05  5.03e+04 4.26e-14  2.29e+01     1s
   2   9.24270839e+04  1.30672007e+05  0.00e+00 5.68e-14  1.90e-01     1s
   3   9.54438949e+04  1.03986287e+05  0.00e+00 4.26e-14  4.25e-02     1s
   4   9.70657278e+04  1.01807109e+05  0.00e+00 2.84e-14  2.36e-02     1s
   5   9.74971109e+04  1.00803188e+05  0.00e+00 2.84e-14  1.64e-02     1s
   6   9.79013230e+04  1.00418607e+05  0.00e+00 2.84e-14  1.25e-02     1s
   7   9.81551648e+04  1.00125235e+05  0.00e+00 2.84e-14  9.80e-03     1s
   8   9.82630366e+04  1.00121816e+05  0.00e+00 2.84e-14  9.25e-03     1s
   9   9.89691490e+04  9.99683219e+04  0.00e+00 2.84e-14  4.97e-03     1s
  10   9.92152416e+04  9.98960904e+04  0.00e+00 2.84e-14  3.39e-03     1s
  11   9.92240853e+04  9.98392472e+04  0.00e+00 2.84e-14  3.06e-03     1s
  12   9.93239501e+04  9.98007748e+04  0.00e+00 2.84e-14  2.37e-03     1s
  13   9.93373452e+04  9.97828014e+04  0.00e+00 2.84e-14  2.22e-03     1s
  14   9.93765585e+04  9.97648374e+04  0.00e+00 2.84e-14  1.93e-03     1s
  15   9.93912861e+04  9.97505028e+04  0.00e+00 2.84e-14  1.79e-03     1s
  16   9.94215231e+04  9.97466601e+04  0.00e+00 3.55e-14  1.62e-03     1s
  17   9.94654897e+04  9.97318441e+04  0.00e+00 4.26e-14  1.33e-03     1s

Barrier performed 17 iterations in 1.50 seconds (1.04 work units)
Barrier solve interrupted - model solved by another algorithm


Solved with dual simplex
Solved in 3674 iterations and 1.61 seconds (1.15 work units)
Optimal objective  9.968900000e+04
